3 3 2
30 2 5 1 2 2 14 0 37 1 1 2 1 1 19 0 1 2 23 0 34 2 5 1 12 0 46 2 14 1 43 0 9 2 33 1 4 2 39 1 35 0 38 2 7 1 24 0 20 2 47 1 18 0 41 1 38 2 12 1 29 
30 0 40 1 21 0 3 2 18 0 47 2 44 1 4 0 32 2 4 0 29 2 11 0 24 2 7 0 36 2 46 1 35 0 25 1 26 2 46 1 26 0 16 2 46 0 35 1 21 0 40 1 41 0 41 2 35 1 3 2 1 
30 0 2 1 18 2 31 1 19 2 15 1 2 0 28 1 44 2 40 0 23 1 5 0 17 1 29 2 3 0 20 2 38 0 8 2 38 0 30 1 26 2 36 1 17 0 33 2 29 0 45 1 32 0 20 1 9 0 6 2 14 

-------------
